IRMOF-1 {

  ### LAMMPS commands for initialization
  ### (These can be overridden later.)


  write_once("In Init") {
    atom_style full
    units           real
    pair_style      lj/cut 12.500
    bond_style      harmonic
    angle_style     hybrid cosine/periodic fourier
    dihedral_style  harmonic
    improper_style  fourier
    pair_modify     tail yes mix arithmetic
    special_bonds   lj/coul 0.0 0.0 1.0
  }

  write_once("In Settings") {
    pair_coeff @atom:Zn3f2 @atom:Zn3f2 0.124000 2.461553
    pair_coeff @atom:O_3_f @atom:O_3_f 0.060000 3.118146
    pair_coeff @atom:O_2 @atom:O_2 0.060000 3.118146
    pair_coeff @atom:C_R @atom:C_R 0.105000 3.430851
    pair_coeff @atom:C_2 @atom:C_2 0.105000 3.430851
    pair_coeff @atom:C_1 @atom:C_1 0.105000 3.430851
    pair_coeff @atom:H_ @atom:H_ 0.044000 2.571134
  }

  write_once("In Settings") {
    bond_coeff @bond:type1 122.127512 2.014866
    bond_coeff @bond:type2 714.557442 1.269010
    bond_coeff @bond:type3 389.261715 1.461000
    bond_coeff @bond:type4 391.669513 1.458000
    bond_coeff @bond:type5 408.240118 1.438000
    bond_coeff @bond:type6 462.655054 1.379256
    bond_coeff @bond:type7 381.236455 1.058433
    bond_coeff @bond:type8 357.440381 1.081418
  }

  write_once("In Settings") {
    angle_coeff @angle:type1 fourier 131.511072 0.343737 0.374972 0.281246
    angle_coeff @angle:type2 fourier 42.532620 0.343737 0.374972 0.281246
    angle_coeff @angle:type3 cosine/periodic 42.206165 -1 3
    angle_coeff @angle:type4 cosine/periodic 206.778426 -1 3
    angle_coeff @angle:type5 cosine/periodic 137.235270 -1 3
    angle_coeff @angle:type6 cosine/periodic 137.714246 -1 3
    angle_coeff @angle:type7 cosine/periodic 95.880496 -1 3
    angle_coeff @angle:type8 cosine/periodic 98.207309 -1 3
    angle_coeff @angle:type9 cosine/periodic 102.183280 -1 3
    angle_coeff @angle:type10 cosine/periodic 111.297508 -1 3
    angle_coeff @angle:type11 cosine/periodic 29.055258 1 1
    angle_coeff @angle:type12 cosine/periodic 57.289016 -1 3
  }

  write_once("In Settings") {
    dihedral_coeff @dihedral:type1 6.737110 -1 2
    dihedral_coeff @dihedral:type2 1.250000 -1 2
    dihedral_coeff @dihedral:type3 3.368555 -1 2
  }

  write_once("In Settings") {
    improper_coeff @improper:type1 2.000000 1.000000 -1.000000 0.000000 0
  }


  ### DATA sections


  write_once("Data Masses") {
    @atom:Zn3f2 65.380000000
    @atom:O_3_f 15.999400000
    @atom:O_2 15.999400000
    @atom:C_R 12.010700000
    @atom:C_2 12.010700000
    @atom:C_1 12.010700000
    @atom:H_ 1.007940000
  }

  write("Data Atoms") {
    $atom:Zn3f2_1 $mol:m444 @atom:Zn3f2 0.00000 9.93950 7.69729 7.69729
    $atom:Zn3f2_2 $mol:m444 @atom:Zn3f2 0.00000 20.61330 22.85551 22.85551
    $atom:Zn3f2_3 $mol:m444 @atom:Zn3f2 0.00000 20.61330 22.85551 7.69729
    $atom:Zn3f2_4 $mol:m444 @atom:Zn3f2 0.00000 9.93950 7.69729 22.85551
    $atom:Zn3f2_5 $mol:m444 @atom:Zn3f2 0.00000 20.61330 7.69729 22.85551
    $atom:Zn3f2_6 $mol:m444 @atom:Zn3f2 0.00000 9.93950 22.85551 7.69729
    $atom:Zn3f2_7 $mol:m444 @atom:Zn3f2 0.00000 9.93950 22.85551 22.85551
    $atom:Zn3f2_8 $mol:m444 @atom:Zn3f2 0.00000 20.61330 7.69729 7.69729
    $atom:Zn3f2_9 $mol:m444 @atom:Zn3f2 0.00000 7.69729 9.93950 7.69729
    $atom:Zn3f2_10 $mol:m444 @atom:Zn3f2 0.00000 22.85551 20.61330 22.85551
    $atom:Zn3f2_11 $mol:m444 @atom:Zn3f2 0.00000 7.69729 20.61330 22.85551
    $atom:Zn3f2_12 $mol:m444 @atom:Zn3f2 0.00000 22.85551 9.93950 7.69729
    $atom:Zn3f2_13 $mol:m444 @atom:Zn3f2 0.00000 22.85551 20.61330 7.69729
    $atom:Zn3f2_14 $mol:m444 @atom:Zn3f2 0.00000 7.69729 9.93950 22.85551
    $atom:Zn3f2_15 $mol:m444 @atom:Zn3f2 0.00000 22.85551 9.93950 22.85551
    $atom:Zn3f2_16 $mol:m444 @atom:Zn3f2 0.00000 7.69729 20.61330 7.69729
    $atom:Zn3f2_17 $mol:m444 @atom:Zn3f2 0.00000 7.69729 7.69729 9.93950
    $atom:Zn3f2_18 $mol:m444 @atom:Zn3f2 0.00000 22.85551 22.85551 20.61330
    $atom:Zn3f2_19 $mol:m444 @atom:Zn3f2 0.00000 22.85551 7.69729 20.61330
    $atom:Zn3f2_20 $mol:m444 @atom:Zn3f2 0.00000 7.69729 22.85551 9.93950
    $atom:Zn3f2_21 $mol:m444 @atom:Zn3f2 0.00000 7.69729 22.85551 20.61330
    $atom:Zn3f2_22 $mol:m444 @atom:Zn3f2 0.00000 22.85551 7.69729 9.93950
    $atom:Zn3f2_23 $mol:m444 @atom:Zn3f2 0.00000 22.85551 22.85551 9.93950
    $atom:Zn3f2_24 $mol:m444 @atom:Zn3f2 0.00000 7.69729 7.69729 20.61330
    $atom:Zn3f2_25 $mol:m444 @atom:Zn3f2 0.00000 9.93950 20.61330 20.61330
    $atom:Zn3f2_26 $mol:m444 @atom:Zn3f2 0.00000 20.61330 9.93950 9.93950
    $atom:Zn3f2_27 $mol:m444 @atom:Zn3f2 0.00000 20.61330 9.93950 20.61330
    $atom:Zn3f2_28 $mol:m444 @atom:Zn3f2 0.00000 9.93950 20.61330 9.93950
    $atom:Zn3f2_29 $mol:m444 @atom:Zn3f2 0.00000 20.61330 20.61330 9.93950
    $atom:Zn3f2_30 $mol:m444 @atom:Zn3f2 0.00000 9.93950 9.93950 20.61330
    $atom:Zn3f2_31 $mol:m444 @atom:Zn3f2 0.00000 9.93950 9.93950 9.93950
    $atom:Zn3f2_32 $mol:m444 @atom:Zn3f2 0.00000 20.61330 20.61330 20.61330
    $atom:O_3_f_1 $mol:m444 @atom:O_3_f 0.00000 8.81839 8.81839 8.81839
    $atom:O_3_f_2 $mol:m444 @atom:O_3_f 0.00000 21.73441 21.73441 21.73441
    $atom:O_3_f_3 $mol:m444 @atom:O_3_f 0.00000 21.73441 21.73441 8.81839
    $atom:O_3_f_4 $mol:m444 @atom:O_3_f 0.00000 8.81839 8.81839 21.73441
    $atom:O_3_f_5 $mol:m444 @atom:O_3_f 0.00000 21.73441 8.81839 21.73441
    $atom:O_3_f_6 $mol:m444 @atom:O_3_f 0.00000 8.81839 21.73441 8.81839
    $atom:O_3_f_7 $mol:m444 @atom:O_3_f 0.00000 8.81839 21.73441 21.73441
    $atom:O_3_f_8 $mol:m444 @atom:O_3_f 0.00000 21.73441 8.81839 8.81839
    $atom:O_2_1 $mol:m444 @atom:O_2 0.00000 9.64243 7.99435 5.82190
    $atom:O_2_2 $mol:m444 @atom:O_2 0.00000 20.91037 22.55845 24.73090
    $atom:O_2_3 $mol:m444 @atom:O_2 0.00000 20.91037 22.55845 5.82190
    $atom:O_2_4 $mol:m444 @atom:O_2 0.00000 9.64243 7.99435 24.73090
    $atom:O_2_5 $mol:m444 @atom:O_2 0.00000 20.91037 7.99435 24.73090
    $atom:O_2_6 $mol:m444 @atom:O_2 0.00000 9.64243 22.55845 5.82190
    $atom:O_2_7 $mol:m444 @atom:O_2 0.00000 9.64243 22.55845 24.73090
    $atom:O_2_8 $mol:m444 @atom:O_2 0.00000 20.91037 7.99435 5.82190
    $atom:O_2_9 $mol:m444 @atom:O_2 0.00000 5.82190 9.64243 7.99435
    $atom:O_2_10 $mol:m444 @atom:O_2 0.00000 24.73090 20.91037 22.55845
    $atom:O_2_11 $mol:m444 @atom:O_2 0.00000 5.82190 20.91037 22.55845
    $atom:O_2_12 $mol:m444 @atom:O_2 0.00000 24.73090 9.64243 7.99435
    $atom:O_2_13 $mol:m444 @atom:O_2 0.00000 24.73090 20.91037 7.99435
    $atom:O_2_14 $mol:m444 @atom:O_2 0.00000 5.82190 9.64243 22.55845
    $atom:O_2_15 $mol:m444 @atom:O_2 0.00000 24.73090 9.64243 22.55845
    $atom:O_2_16 $mol:m444 @atom:O_2 0.00000 5.82190 20.91037 7.99435
    $atom:O_2_17 $mol:m444 @atom:O_2 0.00000 7.99435 5.82190 9.64243
    $atom:O_2_18 $mol:m444 @atom:O_2 0.00000 22.55845 24.73090 20.91037
    $atom:O_2_19 $mol:m444 @atom:O_2 0.00000 22.55845 5.82190 20.91037
    $atom:O_2_20 $mol:m444 @atom:O_2 0.00000 7.99435 24.73090 9.64243
    $atom:O_2_21 $mol:m444 @atom:O_2 0.00000 7.99435 24.73090 20.91037
    $atom:O_2_22 $mol:m444 @atom:O_2 0.00000 22.55845 5.82190 9.64243
    $atom:O_2_23 $mol:m444 @atom:O_2 0.00000 22.55845 24.73090 9.64243
    $atom:O_2_24 $mol:m444 @atom:O_2 0.00000 7.99435 5.82190 20.91037
    $atom:O_2_25 $mol:m444 @atom:O_2 0.00000 7.99435 9.64243 24.73090
    $atom:O_2_26 $mol:m444 @atom:O_2 0.00000 22.55845 20.91037 5.82190
    $atom:O_2_27 $mol:m444 @atom:O_2 0.00000 22.55845 20.91037 24.73090
    $atom:O_2_28 $mol:m444 @atom:O_2 0.00000 7.99435 9.64243 5.82190
    $atom:O_2_29 $mol:m444 @atom:O_2 0.00000 7.99435 20.91037 5.82190
    $atom:O_2_30 $mol:m444 @atom:O_2 0.00000 22.55845 9.64243 24.73090
    $atom:O_2_31 $mol:m444 @atom:O_2 0.00000 22.55845 9.64243 5.82190
    $atom:O_2_32 $mol:m444 @atom:O_2 0.00000 7.99435 20.91037 24.73090
    $atom:O_2_33 $mol:m444 @atom:O_2 0.00000 9.64243 5.82190 22.55845
    $atom:O_2_34 $mol:m444 @atom:O_2 0.00000 20.91037 24.73090 7.99435
    $atom:O_2_35 $mol:m444 @atom:O_2 0.00000 20.91037 5.82190 7.99435
    $atom:O_2_36 $mol:m444 @atom:O_2 0.00000 9.64243 24.73090 22.55845
    $atom:O_2_37 $mol:m444 @atom:O_2 0.00000 20.91037 24.73090 22.55845
    $atom:O_2_38 $mol:m444 @atom:O_2 0.00000 9.64243 5.82190 7.99435
    $atom:O_2_39 $mol:m444 @atom:O_2 0.00000 9.64243 24.73090 7.99435
    $atom:O_2_40 $mol:m444 @atom:O_2 0.00000 20.91037 5.82190 22.55845
    $atom:O_2_41 $mol:m444 @atom:O_2 0.00000 5.82190 7.99435 20.91037
    $atom:O_2_42 $mol:m444 @atom:O_2 0.00000 24.73090 22.55845 9.64243
    $atom:O_2_43 $mol:m444 @atom:O_2 0.00000 5.82190 22.55845 9.64243
    $atom:O_2_44 $mol:m444 @atom:O_2 0.00000 24.73090 7.99435 20.91037
    $atom:O_2_45 $mol:m444 @atom:O_2 0.00000 24.73090 7.99435 9.64243
    $atom:O_2_46 $mol:m444 @atom:O_2 0.00000 5.82190 22.55845 20.91037
    $atom:O_2_47 $mol:m444 @atom:O_2 0.00000 24.73090 22.55845 20.91037
    $atom:O_2_48 $mol:m444 @atom:O_2 0.00000 5.82190 7.99435 9.64243
    $atom:O_2_49 $mol:m444 @atom:O_2 0.00000 9.64243 20.91037 18.73788
    $atom:O_2_50 $mol:m444 @atom:O_2 0.00000 20.91037 9.64243 11.81492
    $atom:O_2_51 $mol:m444 @atom:O_2 0.00000 20.91037 9.64243 18.73788
    $atom:O_2_52 $mol:m444 @atom:O_2 0.00000 9.64243 20.91037 11.81492
    $atom:O_2_53 $mol:m444 @atom:O_2 0.00000 20.91037 20.91037 11.81492
    $atom:O_2_54 $mol:m444 @atom:O_2 0.00000 9.64243 9.64243 18.73788
    $atom:O_2_55 $mol:m444 @atom:O_2 0.00000 9.64243 9.64243 11.81492
    $atom:O_2_56 $mol:m444 @atom:O_2 0.00000 20.91037 20.91037 18.73788
    $atom:O_2_57 $mol:m444 @atom:O_2 0.00000 7.99435 18.73788 22.55845
    $atom:O_2_58 $mol:m444 @atom:O_2 0.00000 22.55845 11.81492 7.99435
    $atom:O_2_59 $mol:m444 @atom:O_2 0.00000 22.55845 18.73788 7.99435
    $atom:O_2_60 $mol:m444 @atom:O_2 0.00000 7.99435 11.81492 22.55845
    $atom:O_2_61 $mol:m444 @atom:O_2 0.00000 7.99435 11.81492 7.99435
    $atom:O_2_62 $mol:m444 @atom:O_2 0.00000 22.55845 18.73788 22.55845
    $atom:O_2_63 $mol:m444 @atom:O_2 0.00000 22.55845 11.81492 22.55845
    $atom:O_2_64 $mol:m444 @atom:O_2 0.00000 7.99435 18.73788 7.99435
    $atom:O_2_65 $mol:m444 @atom:O_2 0.00000 7.99435 22.55845 11.81492
    $atom:O_2_66 $mol:m444 @atom:O_2 0.00000 22.55845 7.99435 18.73788
    $atom:O_2_67 $mol:m444 @atom:O_2 0.00000 22.55845 7.99435 11.81492
    $atom:O_2_68 $mol:m444 @atom:O_2 0.00000 7.99435 22.55845 18.73788
    $atom:O_2_69 $mol:m444 @atom:O_2 0.00000 7.99435 7.99435 18.73788
    $atom:O_2_70 $mol:m444 @atom:O_2 0.00000 22.55845 22.55845 11.81492
    $atom:O_2_71 $mol:m444 @atom:O_2 0.00000 22.55845 22.55845 18.73788
    $atom:O_2_72 $mol:m444 @atom:O_2 0.00000 7.99435 7.99435 11.81492
    $atom:O_2_73 $mol:m444 @atom:O_2 0.00000 9.64243 18.73788 9.64243
    $atom:O_2_74 $mol:m444 @atom:O_2 0.00000 20.91037 11.81492 20.91037
    $atom:O_2_75 $mol:m444 @atom:O_2 0.00000 20.91037 18.73788 20.91037
    $atom:O_2_76 $mol:m444 @atom:O_2 0.00000 9.64243 11.81492 9.64243
    $atom:O_2_77 $mol:m444 @atom:O_2 0.00000 20.91037 11.81492 9.64243
    $atom:O_2_78 $mol:m444 @atom:O_2 0.00000 9.64243 18.73788 20.91037
    $atom:O_2_79 $mol:m444 @atom:O_2 0.00000 9.64243 11.81492 20.91037
    $atom:O_2_80 $mol:m444 @atom:O_2 0.00000 20.91037 18.73788 9.64243
    $atom:O_2_81 $mol:m444 @atom:O_2 0.00000 18.73788 9.64243 20.91037
    $atom:O_2_82 $mol:m444 @atom:O_2 0.00000 11.81492 20.91037 9.64243
    $atom:O_2_83 $mol:m444 @atom:O_2 0.00000 18.73788 20.91037 9.64243
    $atom:O_2_84 $mol:m444 @atom:O_2 0.00000 11.81492 9.64243 20.91037
    $atom:O_2_85 $mol:m444 @atom:O_2 0.00000 11.81492 20.91037 20.91037
    $atom:O_2_86 $mol:m444 @atom:O_2 0.00000 18.73788 9.64243 9.64243
    $atom:O_2_87 $mol:m444 @atom:O_2 0.00000 11.81492 9.64243 9.64243
    $atom:O_2_88 $mol:m444 @atom:O_2 0.00000 18.73788 20.91037 20.91037
    $atom:O_2_89 $mol:m444 @atom:O_2 0.00000 18.73788 7.99435 7.99435
    $atom:O_2_90 $mol:m444 @atom:O_2 0.00000 11.81492 22.55845 22.55845
    $atom:O_2_91 $mol:m444 @atom:O_2 0.00000 18.73788 22.55845 22.55845
    $atom:O_2_92 $mol:m444 @atom:O_2 0.00000 11.81492 7.99435 7.99435
    $atom:O_2_93 $mol:m444 @atom:O_2 0.00000 11.81492 7.99435 22.55845
    $atom:O_2_94 $mol:m444 @atom:O_2 0.00000 18.73788 22.55845 7.99435
    $atom:O_2_95 $mol:m444 @atom:O_2 0.00000 11.81492 22.55845 7.99435
    $atom:O_2_96 $mol:m444 @atom:O_2 0.00000 18.73788 7.99435 22.55845
    $atom:C_R_1 $mol:m444 @atom:C_R 0.00000 8.81839 8.81839 5.23550
    $atom:C_R_2 $mol:m444 @atom:C_R 0.00000 21.73441 21.73441 25.31730
    $atom:C_R_3 $mol:m444 @atom:C_R 0.00000 21.73441 21.73441 5.23550
    $atom:C_R_4 $mol:m444 @atom:C_R 0.00000 8.81839 8.81839 25.31730
    $atom:C_R_5 $mol:m444 @atom:C_R 0.00000 21.73441 8.81839 25.31730
    $atom:C_R_6 $mol:m444 @atom:C_R 0.00000 8.81839 21.73441 5.23550
    $atom:C_R_7 $mol:m444 @atom:C_R 0.00000 8.81839 21.73441 25.31730
    $atom:C_R_8 $mol:m444 @atom:C_R 0.00000 21.73441 8.81839 5.23550
    $atom:C_R_9 $mol:m444 @atom:C_R 0.00000 5.23550 8.81839 8.81839
    $atom:C_R_10 $mol:m444 @atom:C_R 0.00000 25.31730 21.73441 21.73441
    $atom:C_R_11 $mol:m444 @atom:C_R 0.00000 5.23550 21.73441 21.73441
    $atom:C_R_12 $mol:m444 @atom:C_R 0.00000 25.31730 8.81839 8.81839
    $atom:C_R_13 $mol:m444 @atom:C_R 0.00000 25.31730 21.73441 8.81839
    $atom:C_R_14 $mol:m444 @atom:C_R 0.00000 5.23550 8.81839 21.73441
    $atom:C_R_15 $mol:m444 @atom:C_R 0.00000 25.31730 8.81839 21.73441
    $atom:C_R_16 $mol:m444 @atom:C_R 0.00000 5.23550 21.73441 8.81839
    $atom:C_R_17 $mol:m444 @atom:C_R 0.00000 8.81839 5.23550 8.81839
    $atom:C_R_18 $mol:m444 @atom:C_R 0.00000 21.73441 25.31730 21.73441
    $atom:C_R_19 $mol:m444 @atom:C_R 0.00000 21.73441 5.23550 21.73441
    $atom:C_R_20 $mol:m444 @atom:C_R 0.00000 8.81839 25.31730 8.81839
    $atom:C_R_21 $mol:m444 @atom:C_R 0.00000 8.81839 25.31730 21.73441
    $atom:C_R_22 $mol:m444 @atom:C_R 0.00000 21.73441 5.23550 8.81839
    $atom:C_R_23 $mol:m444 @atom:C_R 0.00000 21.73441 25.31730 8.81839
    $atom:C_R_24 $mol:m444 @atom:C_R 0.00000 8.81839 5.23550 21.73441
    $atom:C_R_25 $mol:m444 @atom:C_R 0.00000 8.81839 21.73441 18.15151
    $atom:C_R_26 $mol:m444 @atom:C_R 0.00000 21.73441 8.81839 12.40129
    $atom:C_R_27 $mol:m444 @atom:C_R 0.00000 21.73441 8.81839 18.15151
    $atom:C_R_28 $mol:m444 @atom:C_R 0.00000 8.81839 21.73441 12.40129
    $atom:C_R_29 $mol:m444 @atom:C_R 0.00000 21.73441 21.73441 12.40129
    $atom:C_R_30 $mol:m444 @atom:C_R 0.00000 8.81839 8.81839 18.15151
    $atom:C_R_31 $mol:m444 @atom:C_R 0.00000 8.81839 8.81839 12.40129
    $atom:C_R_32 $mol:m444 @atom:C_R 0.00000 21.73441 21.73441 18.15151
    $atom:C_R_33 $mol:m444 @atom:C_R 0.00000 8.81839 18.15151 21.73441
    $atom:C_R_34 $mol:m444 @atom:C_R 0.00000 21.73441 12.40129 8.81839
    $atom:C_R_35 $mol:m444 @atom:C_R 0.00000 21.73441 18.15151 8.81839
    $atom:C_R_36 $mol:m444 @atom:C_R 0.00000 8.81839 12.40129 21.73441
    $atom:C_R_37 $mol:m444 @atom:C_R 0.00000 8.81839 12.40129 8.81839
    $atom:C_R_38 $mol:m444 @atom:C_R 0.00000 21.73441 18.15151 21.73441
    $atom:C_R_39 $mol:m444 @atom:C_R 0.00000 21.73441 12.40129 21.73441
    $atom:C_R_40 $mol:m444 @atom:C_R 0.00000 8.81839 18.15151 8.81839
    $atom:C_R_41 $mol:m444 @atom:C_R 0.00000 18.15151 8.81839 21.73441
    $atom:C_R_42 $mol:m444 @atom:C_R 0.00000 12.40129 21.73441 8.81839
    $atom:C_R_43 $mol:m444 @atom:C_R 0.00000 18.15151 21.73441 8.81839
    $atom:C_R_44 $mol:m444 @atom:C_R 0.00000 12.40129 8.81839 21.73441
    $atom:C_R_45 $mol:m444 @atom:C_R 0.00000 12.40129 21.73441 21.73441
    $atom:C_R_46 $mol:m444 @atom:C_R 0.00000 18.15151 8.81839 8.81839
    $atom:C_R_47 $mol:m444 @atom:C_R 0.00000 12.40129 8.81839 8.81839
    $atom:C_R_48 $mol:m444 @atom:C_R 0.00000 18.15151 21.73441 21.73441
    $atom:C_2_1 $mol:m444 @atom:C_2 0.00000 8.81839 8.81839 3.75017
    $atom:C_2_2 $mol:m444 @atom:C_2 0.00000 21.73441 21.73441 26.80263
    $atom:C_2_3 $mol:m444 @atom:C_2 0.00000 21.73441 21.73441 3.75017
    $atom:C_2_4 $mol:m444 @atom:C_2 0.00000 8.81839 8.81839 26.80263
    $atom:C_2_5 $mol:m444 @atom:C_2 0.00000 21.73441 8.81839 26.80263
    $atom:C_2_6 $mol:m444 @atom:C_2 0.00000 8.81839 21.73441 3.75017
    $atom:C_2_7 $mol:m444 @atom:C_2 0.00000 8.81839 21.73441 26.80263
    $atom:C_2_8 $mol:m444 @atom:C_2 0.00000 21.73441 8.81839 3.75017
    $atom:C_2_9 $mol:m444 @atom:C_2 0.00000 3.75017 8.81839 8.81839
    $atom:C_2_10 $mol:m444 @atom:C_2 0.00000 26.80263 21.73441 21.73441
    $atom:C_2_11 $mol:m444 @atom:C_2 0.00000 3.75017 21.73441 21.73441
    $atom:C_2_12 $mol:m444 @atom:C_2 0.00000 26.80263 8.81839 8.81839
    $atom:C_2_13 $mol:m444 @atom:C_2 0.00000 26.80263 21.73441 8.81839
    $atom:C_2_14 $mol:m444 @atom:C_2 0.00000 3.75017 8.81839 21.73441
    $atom:C_2_15 $mol:m444 @atom:C_2 0.00000 26.80263 8.81839 21.73441
    $atom:C_2_16 $mol:m444 @atom:C_2 0.00000 3.75017 21.73441 8.81839
    $atom:C_2_17 $mol:m444 @atom:C_2 0.00000 8.81839 3.75017 8.81839
    $atom:C_2_18 $mol:m444 @atom:C_2 0.00000 21.73441 26.80263 21.73441
    $atom:C_2_19 $mol:m444 @atom:C_2 0.00000 21.73441 3.75017 21.73441
    $atom:C_2_20 $mol:m444 @atom:C_2 0.00000 8.81839 26.80263 8.81839
    $atom:C_2_21 $mol:m444 @atom:C_2 0.00000 8.81839 26.80263 21.73441
    $atom:C_2_22 $mol:m444 @atom:C_2 0.00000 21.73441 3.75017 8.81839
    $atom:C_2_23 $mol:m444 @atom:C_2 0.00000 21.73441 26.80263 8.81839
    $atom:C_2_24 $mol:m444 @atom:C_2 0.00000 8.81839 3.75017 21.73441
    $atom:C_R_49 $mol:m444 @atom:C_R 0.00000 8.81839 21.73441 16.66615
    $atom:C_R_50 $mol:m444 @atom:C_R 0.00000 21.73441 8.81839 13.88664
    $atom:C_R_51 $mol:m444 @atom:C_R 0.00000 21.73441 8.81839 16.66615
    $atom:C_R_52 $mol:m444 @atom:C_R 0.00000 8.81839 21.73441 13.88664
    $atom:C_R_53 $mol:m444 @atom:C_R 0.00000 21.73441 21.73441 13.88664
    $atom:C_R_54 $mol:m444 @atom:C_R 0.00000 8.81839 8.81839 16.66615
    $atom:C_R_55 $mol:m444 @atom:C_R 0.00000 8.81839 8.81839 13.88664
    $atom:C_R_56 $mol:m444 @atom:C_R 0.00000 21.73441 21.73441 16.66615
    $atom:C_R_57 $mol:m444 @atom:C_R 0.00000 8.81839 16.66615 21.73441
    $atom:C_R_58 $mol:m444 @atom:C_R 0.00000 21.73441 13.88664 8.81839
    $atom:C_R_59 $mol:m444 @atom:C_R 0.00000 21.73441 16.66615 8.81839
    $atom:C_R_60 $mol:m444 @atom:C_R 0.00000 8.81839 13.88664 21.73441
    $atom:C_R_61 $mol:m444 @atom:C_R 0.00000 8.81839 13.88664 8.81839
    $atom:C_R_62 $mol:m444 @atom:C_R 0.00000 21.73441 16.66615 21.73441
    $atom:C_R_63 $mol:m444 @atom:C_R 0.00000 21.73441 13.88664 21.73441
    $atom:C_R_64 $mol:m444 @atom:C_R 0.00000 8.81839 16.66615 8.81839
    $atom:C_R_65 $mol:m444 @atom:C_R 0.00000 16.66615 8.81839 21.73441
    $atom:C_R_66 $mol:m444 @atom:C_R 0.00000 13.88664 21.73441 8.81839
    $atom:C_R_67 $mol:m444 @atom:C_R 0.00000 16.66615 21.73441 8.81839
    $atom:C_R_68 $mol:m444 @atom:C_R 0.00000 13.88664 8.81839 21.73441
    $atom:C_R_69 $mol:m444 @atom:C_R 0.00000 13.88664 21.73441 21.73441
    $atom:C_R_70 $mol:m444 @atom:C_R 0.00000 16.66615 8.81839 8.81839
    $atom:C_R_71 $mol:m444 @atom:C_R 0.00000 13.88664 8.81839 8.81839
    $atom:C_R_72 $mol:m444 @atom:C_R 0.00000 16.66615 21.73441 21.73441
    $atom:C_1_1 $mol:m444 @atom:C_1 0.00000 9.66828 7.96854 3.05528
    $atom:C_1_2 $mol:m444 @atom:C_1 0.00000 20.88452 22.58426 27.49752
    $atom:C_1_3 $mol:m444 @atom:C_1 0.00000 20.88452 22.58426 3.05528
    $atom:C_1_4 $mol:m444 @atom:C_1 0.00000 9.66828 7.96854 27.49752
    $atom:C_1_5 $mol:m444 @atom:C_1 0.00000 20.88452 7.96854 27.49752
    $atom:C_1_6 $mol:m444 @atom:C_1 0.00000 9.66828 22.58426 3.05528
    $atom:C_1_7 $mol:m444 @atom:C_1 0.00000 9.66828 22.58426 27.49752
    $atom:C_1_8 $mol:m444 @atom:C_1 0.00000 20.88452 7.96854 3.05528
    $atom:C_1_9 $mol:m444 @atom:C_1 0.00000 3.05528 9.66828 7.96854
    $atom:C_1_10 $mol:m444 @atom:C_1 0.00000 27.49752 20.88452 22.58426
    $atom:C_1_11 $mol:m444 @atom:C_1 0.00000 3.05528 20.88452 22.58426
    $atom:C_1_12 $mol:m444 @atom:C_1 0.00000 27.49752 9.66828 7.96854
    $atom:C_1_13 $mol:m444 @atom:C_1 0.00000 27.49752 20.88452 7.96854
    $atom:C_1_14 $mol:m444 @atom:C_1 0.00000 3.05528 9.66828 22.58426
    $atom:C_1_15 $mol:m444 @atom:C_1 0.00000 27.49752 9.66828 22.58426
    $atom:C_1_16 $mol:m444 @atom:C_1 0.00000 3.05528 20.88452 7.96854
    $atom:C_1_17 $mol:m444 @atom:C_1 0.00000 7.96854 3.05528 9.66828
    $atom:C_1_18 $mol:m444 @atom:C_1 0.00000 22.58426 27.49752 20.88452
    $atom:C_1_19 $mol:m444 @atom:C_1 0.00000 22.58426 3.05528 20.88452
    $atom:C_1_20 $mol:m444 @atom:C_1 0.00000 7.96854 27.49752 9.66828
    $atom:C_1_21 $mol:m444 @atom:C_1 0.00000 7.96854 27.49752 20.88452
    $atom:C_1_22 $mol:m444 @atom:C_1 0.00000 22.58426 3.05528 9.66828
    $atom:C_1_23 $mol:m444 @atom:C_1 0.00000 22.58426 27.49752 9.66828
    $atom:C_1_24 $mol:m444 @atom:C_1 0.00000 7.96854 3.05528 20.88452
    $atom:C_1_25 $mol:m444 @atom:C_1 0.00000 7.96854 9.66828 27.49752
    $atom:C_1_26 $mol:m444 @atom:C_1 0.00000 22.58426 20.88452 3.05528
    $atom:C_1_27 $mol:m444 @atom:C_1 0.00000 22.58426 20.88452 27.49752
    $atom:C_1_28 $mol:m444 @atom:C_1 0.00000 7.96854 9.66828 3.05528
    $atom:C_1_29 $mol:m444 @atom:C_1 0.00000 7.96854 20.88452 3.05528
    $atom:C_1_30 $mol:m444 @atom:C_1 0.00000 22.58426 9.66828 27.49752
    $atom:C_1_31 $mol:m444 @atom:C_1 0.00000 22.58426 9.66828 3.05528
    $atom:C_1_32 $mol:m444 @atom:C_1 0.00000 7.96854 20.88452 27.49752
    $atom:C_1_33 $mol:m444 @atom:C_1 0.00000 9.66828 3.05528 22.58426
    $atom:C_1_34 $mol:m444 @atom:C_1 0.00000 20.88452 27.49752 7.96854
    $atom:C_1_35 $mol:m444 @atom:C_1 0.00000 20.88452 3.05528 7.96854
    $atom:C_1_36 $mol:m444 @atom:C_1 0.00000 9.66828 27.49752 22.58426
    $atom:C_1_37 $mol:m444 @atom:C_1 0.00000 20.88452 27.49752 22.58426
    $atom:C_1_38 $mol:m444 @atom:C_1 0.00000 9.66828 3.05528 7.96854
    $atom:C_1_39 $mol:m444 @atom:C_1 0.00000 9.66828 27.49752 7.96854
    $atom:C_1_40 $mol:m444 @atom:C_1 0.00000 20.88452 3.05528 22.58426
    $atom:C_1_41 $mol:m444 @atom:C_1 0.00000 3.05528 7.96854 20.88452
    $atom:C_1_42 $mol:m444 @atom:C_1 0.00000 27.49752 22.58426 9.66828
    $atom:C_1_43 $mol:m444 @atom:C_1 0.00000 3.05528 22.58426 9.66828
    $atom:C_1_44 $mol:m444 @atom:C_1 0.00000 27.49752 7.96854 20.88452
    $atom:C_1_45 $mol:m444 @atom:C_1 0.00000 27.49752 7.96854 9.66828
    $atom:C_1_46 $mol:m444 @atom:C_1 0.00000 3.05528 22.58426 20.88452
    $atom:C_1_47 $mol:m444 @atom:C_1 0.00000 27.49752 22.58426 20.88452
    $atom:C_1_48 $mol:m444 @atom:C_1 0.00000 3.05528 7.96854 9.66828
    $atom:C_R_73 $mol:m444 @atom:C_R 0.00000 9.66828 20.88452 15.97129
    $atom:C_R_74 $mol:m444 @atom:C_R 0.00000 20.88452 9.66828 14.58151
    $atom:C_R_75 $mol:m444 @atom:C_R 0.00000 20.88452 9.66828 15.97129
    $atom:C_R_76 $mol:m444 @atom:C_R 0.00000 9.66828 20.88452 14.58151
    $atom:C_R_77 $mol:m444 @atom:C_R 0.00000 20.88452 20.88452 14.58151
    $atom:C_R_78 $mol:m444 @atom:C_R 0.00000 9.66828 9.66828 15.97129
    $atom:C_R_79 $mol:m444 @atom:C_R 0.00000 9.66828 9.66828 14.58151
    $atom:C_R_80 $mol:m444 @atom:C_R 0.00000 20.88452 20.88452 15.97129
    $atom:C_R_81 $mol:m444 @atom:C_R 0.00000 7.96854 15.97129 22.58426
    $atom:C_R_82 $mol:m444 @atom:C_R 0.00000 22.58426 14.58151 7.96854
    $atom:C_R_83 $mol:m444 @atom:C_R 0.00000 22.58426 15.97129 7.96854
    $atom:C_R_84 $mol:m444 @atom:C_R 0.00000 7.96854 14.58151 22.58426
    $atom:C_R_85 $mol:m444 @atom:C_R 0.00000 7.96854 14.58151 7.96854
    $atom:C_R_86 $mol:m444 @atom:C_R 0.00000 22.58426 15.97129 22.58426
    $atom:C_R_87 $mol:m444 @atom:C_R 0.00000 22.58426 14.58151 22.58426
    $atom:C_R_88 $mol:m444 @atom:C_R 0.00000 7.96854 15.97129 7.96854
    $atom:C_R_89 $mol:m444 @atom:C_R 0.00000 7.96854 22.58426 14.58151
    $atom:C_R_90 $mol:m444 @atom:C_R 0.00000 22.58426 7.96854 15.97129
    $atom:C_R_91 $mol:m444 @atom:C_R 0.00000 22.58426 7.96854 14.58151
    $atom:C_R_92 $mol:m444 @atom:C_R 0.00000 7.96854 22.58426 15.97129
    $atom:C_R_93 $mol:m444 @atom:C_R 0.00000 7.96854 7.96854 15.97129
    $atom:C_R_94 $mol:m444 @atom:C_R 0.00000 22.58426 22.58426 14.58151
    $atom:C_R_95 $mol:m444 @atom:C_R 0.00000 22.58426 22.58426 15.97129
    $atom:C_R_96 $mol:m444 @atom:C_R 0.00000 7.96854 7.96854 14.58151
    $atom:C_R_97 $mol:m444 @atom:C_R 0.00000 9.66828 15.97129 9.66828
    $atom:C_R_98 $mol:m444 @atom:C_R 0.00000 20.88452 14.58151 20.88452
    $atom:C_R_99 $mol:m444 @atom:C_R 0.00000 20.88452 15.97129 20.88452
    $atom:C_R_100 $mol:m444 @atom:C_R 0.00000 9.66828 14.58151 9.66828
    $atom:C_R_101 $mol:m444 @atom:C_R 0.00000 20.88452 14.58151 9.66828
    $atom:C_R_102 $mol:m444 @atom:C_R 0.00000 9.66828 15.97129 20.88452
    $atom:C_R_103 $mol:m444 @atom:C_R 0.00000 9.66828 14.58151 20.88452
    $atom:C_R_104 $mol:m444 @atom:C_R 0.00000 20.88452 15.97129 9.66828
    $atom:C_R_105 $mol:m444 @atom:C_R 0.00000 15.97129 9.66828 20.88452
    $atom:C_R_106 $mol:m444 @atom:C_R 0.00000 14.58151 20.88452 9.66828
    $atom:C_R_107 $mol:m444 @atom:C_R 0.00000 15.97129 20.88452 9.66828
    $atom:C_R_108 $mol:m444 @atom:C_R 0.00000 14.58151 9.66828 20.88452
    $atom:C_R_109 $mol:m444 @atom:C_R 0.00000 14.58151 20.88452 20.88452
    $atom:C_R_110 $mol:m444 @atom:C_R 0.00000 15.97129 9.66828 9.66828
    $atom:C_R_111 $mol:m444 @atom:C_R 0.00000 14.58151 9.66828 9.66828
    $atom:C_R_112 $mol:m444 @atom:C_R 0.00000 15.97129 20.88452 20.88452
    $atom:C_R_113 $mol:m444 @atom:C_R 0.00000 15.97129 7.96854 7.96854
    $atom:C_R_114 $mol:m444 @atom:C_R 0.00000 14.58151 22.58426 22.58426
    $atom:C_R_115 $mol:m444 @atom:C_R 0.00000 15.97129 22.58426 22.58426
    $atom:C_R_116 $mol:m444 @atom:C_R 0.00000 14.58151 7.96854 7.96854
    $atom:C_R_117 $mol:m444 @atom:C_R 0.00000 14.58151 7.96854 22.58426
    $atom:C_R_118 $mol:m444 @atom:C_R 0.00000 15.97129 22.58426 7.96854
    $atom:C_R_119 $mol:m444 @atom:C_R 0.00000 14.58151 22.58426 7.96854
    $atom:C_R_120 $mol:m444 @atom:C_R 0.00000 15.97129 7.96854 22.58426
    $atom:H__1 $mol:m444 @atom:H_ 0.00000 10.23659 7.40022 3.51767
    $atom:H__2 $mol:m444 @atom:H_ 0.00000 20.31621 23.15258 27.03513
    $atom:H__3 $mol:m444 @atom:H_ 0.00000 20.31621 23.15258 3.51767
    $atom:H__4 $mol:m444 @atom:H_ 0.00000 10.23659 7.40022 27.03513
    $atom:H__5 $mol:m444 @atom:H_ 0.00000 20.31621 7.40022 27.03513
    $atom:H__6 $mol:m444 @atom:H_ 0.00000 10.23659 23.15258 3.51767
    $atom:H__7 $mol:m444 @atom:H_ 0.00000 10.23659 23.15258 27.03513
    $atom:H__8 $mol:m444 @atom:H_ 0.00000 20.31621 7.40022 3.51767
    $atom:H__9 $mol:m444 @atom:H_ 0.00000 3.51767 10.23659 7.40022
    $atom:H__10 $mol:m444 @atom:H_ 0.00000 27.03513 20.31621 23.15258
    $atom:H__11 $mol:m444 @atom:H_ 0.00000 3.51767 20.31621 23.15258
    $atom:H__12 $mol:m444 @atom:H_ 0.00000 27.03513 10.23659 7.40022
    $atom:H__13 $mol:m444 @atom:H_ 0.00000 27.03513 20.31621 7.40022
    $atom:H__14 $mol:m444 @atom:H_ 0.00000 3.51767 10.23659 23.15258
    $atom:H__15 $mol:m444 @atom:H_ 0.00000 27.03513 10.23659 23.15258
    $atom:H__16 $mol:m444 @atom:H_ 0.00000 3.51767 20.31621 7.40022
    $atom:H__17 $mol:m444 @atom:H_ 0.00000 7.40022 3.51767 10.23659
    $atom:H__18 $mol:m444 @atom:H_ 0.00000 23.15258 27.03513 20.31621
    $atom:H__19 $mol:m444 @atom:H_ 0.00000 23.15258 3.51767 20.31621
    $atom:H__20 $mol:m444 @atom:H_ 0.00000 7.40022 27.03513 10.23659
    $atom:H__21 $mol:m444 @atom:H_ 0.00000 7.40022 27.03513 20.31621
    $atom:H__22 $mol:m444 @atom:H_ 0.00000 23.15258 3.51767 10.23659
    $atom:H__23 $mol:m444 @atom:H_ 0.00000 23.15258 27.03513 10.23659
    $atom:H__24 $mol:m444 @atom:H_ 0.00000 7.40022 3.51767 20.31621
    $atom:H__25 $mol:m444 @atom:H_ 0.00000 7.40022 10.23659 27.03513
    $atom:H__26 $mol:m444 @atom:H_ 0.00000 23.15258 20.31621 3.51767
    $atom:H__27 $mol:m444 @atom:H_ 0.00000 23.15258 20.31621 27.03513
    $atom:H__28 $mol:m444 @atom:H_ 0.00000 7.40022 10.23659 3.51767
    $atom:H__29 $mol:m444 @atom:H_ 0.00000 7.40022 20.31621 3.51767
    $atom:H__30 $mol:m444 @atom:H_ 0.00000 23.15258 10.23659 27.03513
    $atom:H__31 $mol:m444 @atom:H_ 0.00000 23.15258 10.23659 3.51767
    $atom:H__32 $mol:m444 @atom:H_ 0.00000 7.40022 20.31621 27.03513
    $atom:H__33 $mol:m444 @atom:H_ 0.00000 10.23659 3.51767 23.15258
    $atom:H__34 $mol:m444 @atom:H_ 0.00000 20.31621 27.03513 7.40022
    $atom:H__35 $mol:m444 @atom:H_ 0.00000 20.31621 3.51767 7.40022
    $atom:H__36 $mol:m444 @atom:H_ 0.00000 10.23659 27.03513 23.15258
    $atom:H__37 $mol:m444 @atom:H_ 0.00000 20.31621 27.03513 23.15258
    $atom:H__38 $mol:m444 @atom:H_ 0.00000 10.23659 3.51767 7.40022
    $atom:H__39 $mol:m444 @atom:H_ 0.00000 10.23659 27.03513 7.40022
    $atom:H__40 $mol:m444 @atom:H_ 0.00000 20.31621 3.51767 23.15258
    $atom:H__41 $mol:m444 @atom:H_ 0.00000 3.51767 7.40022 20.31621
    $atom:H__42 $mol:m444 @atom:H_ 0.00000 27.03513 23.15258 10.23659
    $atom:H__43 $mol:m444 @atom:H_ 0.00000 3.51767 23.15258 10.23659
    $atom:H__44 $mol:m444 @atom:H_ 0.00000 27.03513 7.40022 20.31621
    $atom:H__45 $mol:m444 @atom:H_ 0.00000 27.03513 7.40022 10.23659
    $atom:H__46 $mol:m444 @atom:H_ 0.00000 3.51767 23.15258 20.31621
    $atom:H__47 $mol:m444 @atom:H_ 0.00000 27.03513 23.15258 20.31621
    $atom:H__48 $mol:m444 @atom:H_ 0.00000 3.51767 7.40022 10.23659
    $atom:H__49 $mol:m444 @atom:H_ 0.00000 10.23659 20.31621 16.43368
    $atom:H__50 $mol:m444 @atom:H_ 0.00000 20.31621 10.23659 14.11912
    $atom:H__51 $mol:m444 @atom:H_ 0.00000 20.31621 10.23659 16.43368
    $atom:H__52 $mol:m444 @atom:H_ 0.00000 10.23659 20.31621 14.11912
    $atom:H__53 $mol:m444 @atom:H_ 0.00000 20.31621 20.31621 14.11912
    $atom:H__54 $mol:m444 @atom:H_ 0.00000 10.23659 10.23659 16.43368
    $atom:H__55 $mol:m444 @atom:H_ 0.00000 10.23659 10.23659 14.11912
    $atom:H__56 $mol:m444 @atom:H_ 0.00000 20.31621 20.31621 16.43368
    $atom:H__57 $mol:m444 @atom:H_ 0.00000 7.40022 16.43368 23.15258
    $atom:H__58 $mol:m444 @atom:H_ 0.00000 23.15258 14.11912 7.40022
    $atom:H__59 $mol:m444 @atom:H_ 0.00000 23.15258 16.43368 7.40022